unsat
( c12028
  c12031
  c14341
  c14357
  c14857
  c14872
  c14894
  c14908
  c14915
  c26781
  c30303
  c33038
  c35489
  c37372
  c3869
  c38977
  c40162
  c40178
  c40190
  c40207
  c40224
  c40235
  c40245
  c41623
  c42141
  c42161
  c42172
  c42192
  c42206
  c42214
  c42228
  c4366
  c4379
  c4384
  c48019
  c48547
  c49102
  c50452
  c50471
  c50481
  c50491
  c50505
  c50577
  c9915 )
